c t pmc
p cnf 26 83
c p show 1 2 3 4 5 6 7 8 0
-1 1 9 0
-3 1 10 0
-1 5 11 0
-3 5 12 0
-1 3 13 0
-3 3 14 0
-1 7 15 0
-3 7 16 0
-5 1 17 0
-7 1 18 0
-5 5 19 0
-7 5 20 0
-5 3 21 0
-7 3 22 0
-5 7 23 0
-7 7 24 0
-2 2 9 0
-4 2 10 0
-2 6 11 0
-4 6 12 0
-2 4 13 0
-4 4 14 0
-2 8 15 0
-4 8 16 0
-6 2 17 0
-8 2 18 0
-6 6 19 0
-8 6 20 0
-6 4 21 0
-8 4 22 0
-6 8 23 0
-8 8 24 0
-1 -1 -9 0
-1 -3 -10 0
-3 -5 -9 0
-3 -7 -10 0
-5 -1 -11 0
-5 -3 -12 0
-7 -5 -11 0
-7 -7 -12 0
-1 -2 -13 0
-1 -4 -14 0
-3 -6 -13 0
-3 -8 -14 0
-5 -2 -15 0
-5 -4 -16 0
-7 -6 -15 0
-7 -8 -16 0
-2 -1 -17 0
-2 -3 -18 0
-4 -5 -17 0
-4 -7 -18 0
-6 -1 -19 0
-6 -3 -20 0
-8 -5 -19 0
-8 -7 -20 0
-2 -2 -21 0
-2 -4 -22 0
-4 -6 -21 0
-4 -8 -22 0
-6 -2 -23 0
-6 -4 -24 0
-8 -6 -23 0
-8 -8 -24 0
-25 1 0
-25 4 0
-26 5 0
-26 8 0
-25 1 0
-25 6 0
-26 3 0
-26 8 0
1 2 0
-1 -2 0
3 4 0
-3 -4 0
5 6 0
-5 -6 0
7 8 0
-7 -8 0
25 26 0
-25 -26 0
25 0
